25776,
24046,
23330,
22342,
22342,
22239,
21154,
20206,
19994,
19994,
19763,
18316,
18307,
18178,
17549,
17351,
16648,
16233,
16210,
16033,
16033,
15842,
15747,
15667,
15610,
15528,
15518,
15461,
15423,
15423,
15423,
15423,
15423,
15423,
15423,
15423,
15415,
15415,
15415,
15415,
15415,
15415,
15344,
15344,
15344,
15344,
15344,
15344,
15344,
15344,
15344,
15344,
15344,
15344,
15344,
15344,
15344,
15344,
15344,
15344,
15162,
15162,
14752,
14752,
14752,
14737,
14737,
14737,
14737,
14737,
14737,
14737,
14737,
14737,
14737,
14737,
14737,
14737,
14737,
14737,
14737,
14734,
14734,
14618,
14618,
14610,
14610,
14610,
14610,
14610,
14610,
14610,
14610,
14610,
14601,
14601,
14601,
14601,
14601,
14601,
14601,
14601,
14601,
14601,
14601,
14601,
14601,
14601,
14601,
14601,
14495,
14495,
14495,
14495,
14495,
14495,
14495,
14302,
14302,
14302,
14302,
14302,
14302,
14302,
14302,
14302,
14302,
14302,
14302,
14302,
14302,
14302,
14302,
14302,
14302,
14302,
14302,
14302,
14302,
14302,
14302,
14302,
14302,
14302,
14302,
14302,
14302,
14238,
14238,
14228,
14164,
14164,
14164,
14164,
14164,
14164,
14164,
14164,
14164,
14164,
14164,
14164,
14164,
14164,
14091,
14091,
14091,
14091,
14091,
14091,
14091,
14091,
14091,
14091,
14091,
14091,
14091,
14091,
14091,
14091,
14091,
14091,
14091,
14091,
14068,
14068,
14068,
14068,
14068,
14068,
14068,
14068,
14068,
14068,
14068,
14068,
14068,
14068,
14068,
14068,
14068,
14068,
14068,
14068,
14068,
14068,
14068,
14068,
14068,
14068,
14068,
14068,
14068,
14068,
14062,
13755,
13755,
13749,
13749,
13749,
13749,
13749,
13749,
13749,
13749,
13749,
13749,
13684,
13684,
13684,
13684,
13462,
13462,
13462,
13462,
13462,
13462,
13462,
13462,
13462,
13462,
13462,
13462,
13462,
13260,
13260,
13260,
13260,
13260,
13260,
13260,
13260,
13260,
13260,
13260,
13260,
13260,
13260,
13260,
13260,
13260,
13260,
13260,
13260,
13260,
13260,
13260,
13260,
13260,
13260,
13260,
13260,
13260,
13260,
13260,
13260,
13260,
13260,
13208,
13208,
13208,
13208,
13208,
13208,
13208,
13208,
13208,
13208,
13208,
13208,
13208,
13208,
13208,
13208,
13208,
13208,
13208,
13208,
13208,
13208,
13208,
13208,
13208,
13208,
13208,
13208,
13208,
13208,
13208,
13208,
13208,
13208,
13208,
13208,
13208,
13208,
13208,
13159,
13159,
13159,
13159,
13159,
13159,
13037,
13037,
13037,
13037,
13037,
13037,
13037,
13037,
13037,
13037,
12991,
12991,
12991,
12991,
12991,
12991,
12991,
12991,
12991,
12991,
12991,
12991,
12991,
12991,
12991,
12991,
12991,
12991,
12991,
12991,
12991,
12991,
12991,
12991,
12991,
12991,
12991,
12991,
12991,
12991,
12991,
12991,
12991,
12991,
12991,
12991,
12991,
12991,
12991,
12991,
12991,
12991,
12991,
12991,
12991,
12991,
12991,
12991,
12991,
12991,
12991,
12991,
12991,
12991,
12991,
12991,
12991,
12991,
12991,
12991,
12991,
12991,
12991,
12991,
12991,
12991,
12991,
12991,
12991,
12991,
12991,
12991,
12991,
12770,
12770,
12770,
12770,
12770,
12770,
12770,
12770,
12770,
12770,
12770,
12770,
12770,
12770,
12770,
12770,
12770,
12770,
12770,
12770,
12770,
12770,
12770,
12770,
12770,
12770,
12770,
12770,
12770,
12770,
12770,
12770,
12770,
12770,
12770,
12770,
12770,
12770,
12659,
12659,
12659,
12659,
12659,
12659,
12659,
12659,
12618,
12618,
12618,
12618,
12618,
12618,
12618,
12618,
12618,
12618,
12618,
12618,
12618,
12618,
12618,
12618,
12618,
12618,
12618,
12618,
12618,
12618,
12618,
12618,
12618,
12618,
12618,
12618,
12618,
12618,
12618,
12514,
12514,
12514,
12514,
12514,
12514,
12514,
12514,
12514,
12514,
12514,
12514,
12514,
12514,
12514,
12514,
12514,
12514,
12514,
12514,
12514,
12514,
12514,
12514,
12514,
12514,
12514,
12514,
12514,
12514,
12514,
12514,
12514,
12514,
12514,
12514,
12514,
12514,
12514,
12514,
12514,
12514,
12514,
12514,
12514,
12514,
12514,
12514,
12514,
12514,
12514,
12514,
12514,
12514,
12391,
12391,
12391,
12391,
12391,
12391,
12391,
12391,
12368,
12368,
12368,
12368,
12368,
12368,
12368,
12368,
12368,
12368,
12368,
12368,
12368,
12368,
12368,
12368,
12368,
12368,
12368,
12368,
12368,
12368,
12368,
12368,
12368,
12368,
12368,
12368,
12368,
12368,
12368,
12368,
12368,
12368,
12368,
12368,
12368,
12368,
12368,
12368,
12368,
12368,
12368,
12368,
12368,
12368,
12368,
12368,
12368,
12368,
12368,
12368,
12368,
12368,
12368,
12368,
12368,
12368,
12368,
12368,
12368,
12368,
12368,
12368,
12368,
12368,
12368,
12368,
12368,
12368,
12368,
12368,
12368,
12368,
12368,
12368,
12368,
12368,
12368,
12368,
12368,
12368,
12368,
12368,
12368,
12368,
12368,
12368,
12368,
12368,
12368,
12368,
12368,
12368,
12368,
12368,
12368,
12368,
12368,
12368,
12368,
12368,
12368,
12368,
12368,
12368,
12368,
12368,
12368,
12368,
12368,
12368,
12368,
12368,
12368,
12368,
12368,
12368,
12368,
12368,
12368,
12368,
12368,
12368,
12368,
12368,
12368,
12368,
12368,
12368,
12368,
12368,
12368,
12368,
12368,
12368,
12368,
12368,
12368,
12368,
12368,
12368,
12368,
12368,
12368,
12368,
12368,
12368,
12368,
12368,
12368,
12368,
12368,
12368,
12368,
12368,
12368,
12368,
12368,
12368,
12368,
12368,
12368,
12368,
12368,
12368,
12368,
12368,
12368,
12368,
12368,
12368,
12368,
12368,
12368,
12368,
12368,
12368,
12368,
12368,
12368,
12368,
12368,
12368,
12368,
12368,
12368,
12368,
12368,
12368,
12368,
12368,
12368,
12368,
12368,
12368,
12368,
12368,
12368,
12368,
12368,
12368,
12368,
12368,
12368,
12368,
12368,
12368,
12368,
12368,
12368,
12368,
12368,
12368,
12368,
12368,
12368,
12368,
12368,
12368,
12368,
12368,
12292,
12292,
12292,
12292,
12270,
12270,
12270,
12270,
12270,
12270,
12270,
12270,
12270,
12270,
12270,
12270,
12270,
12270,
12270,
12270,
12270,
12270,
12270,
12270,
12270,
12270,
12270,
12270,
12270,
12270,
12270,
12270,
12270,
12270,
12270,
12270,
12270,
12270,
12270,
12270,
12270,
12270,
12270,
12270,
12270,
12270,
12270,
12270,
12270,
12270,
12270,
12270,
12270,
12270,
12270,
12270,
12270,
12270,
12270,
12270,
12270,
12270,
12270,
12270,
12270,
12270,
12270,
12270,
12270,
12270,
12270,
12270,
12270,
12270,
12270,
12270,
12270,
12270,
12270,
12270,
12270,
12270,
12270,
12270,
12270,
12270,
12270,
12270,
12270,
12270,
12270,
12270,
12270,
12270,
12270,
12270,
12270,
12270,
12270,
12270,
12270,
12270,
12270,
12270,
12270,
12270,
12270,
12270,
12270,
12270,
12270,
12270,
12270,
12270,
12270,
12270,
12270,
12270,
12270,
12270,
12270,
12270,
12270,
12270,
12270,
12270,
12270,
12270,
12270,
12270,
12270,
12270,
12270,
12270,
12270,
12270,
12270,
12270,
12270,
12270,
12270,
12270,
12270,
12270,
12270,
12270,
12270,
12270,
12270,
12270,
12270,
12270,
12270,
12270,
12270,
12270,
12270,
12266,
12266,
12266,
12266,
12266,
12266,
12266,
12266,
12266,
12266,
12266,
12266,
12266,
12266,
12266,
12266,
12266,
12266,
12266,
12266,
12266,
12266,
12266,
12266,
12266,
12266,
12266,
12266,
12266,
12266,
12266,
12189,
12189,
12189,
12189,
12189,
12189,
12189,
12189,
12189,
11985,
11985,
11985,
11985,
11959,
11959,
11959,
11959,
11959,
11959,
11959,
11959,
11959,
11959,
11959,
11959,
11959,
11959,
11959,
11959,
11959,
11959,
11959,
11959,
11959,
11959,
11959,
11959,
11959,
11959,
11959,
11959,
11959,
11959,
11959,
11959,
11959,
11959,
11959,
11959,
11959,
11959,
11959,
11959,
11959,
11959,
11936,
11936,
11936,
11936,
11936,
11936,
11936,
11936,
11936,
11936,
11936,
11936,
11936,
11936,
11936,
11936,
11936,
11936,
11936,
11936,
11936,
11936,
11936,
11936,
11936,
11936,
11936,
11936,
11936,
11936,
11936,
11936,
11936,
11936,
11936,
11936,
11936,
11936,
11936,
11866,
11866,
11866,
11866,
11866,
11866,
11866,
11866,
11866,
11866,
11866,
11866,
11866,
11866,
11866,
11866,
11866,
11866,
11866,
11866,
11866,
11866,
11866,
11866,
11866,
11866,
11866,
11866,
11866,
11866,
11866,
11866,
11866,
11866,
11866,
11866,
11866,
11866,
11866,
11866,
11866,
11866,
11866,
11866,
11866,
11866,
11866,
11866,
11866,
11866,
11866,
11866,
11866,
11866,
11866,
11866,
11866,
11866,
11866,
11866,
11866,
11866,
11866,
11866,
11866,
11866,
11866,
11866,
11866,
11866,
11866,
11866,
11866,
11866,
11866,
11866,
11866,
11866,
11866,
11866,
11866,
11866,
11866,
11866,
11866,
11866,
11866,
11866,
11866,
11866,
11866,
11866,
11866,
11866,
11866,
11866,
11866,
11866,
11866,
11866,
11866,
11866,
11866,
11866,
11866,
11866,
11866,
11866,
11866,
11866,
11866,
11866,
11866,
11866,
11866,
11866,
11866,
11866,
11866,
11866,
11866,
11866,
11866,
11866,
11866,
11866,
11864,
11864,
11864,
11864,
11864,
11864,
11864,
11864,
11864,
11864,
11864,
11864,
11856,
11856,
11850,
11850,
11842,
11842,
11842,
11842,
11842,
11842,
11842,
11842,
11842,
11842,
11842,
11842,
11842,
11842,
11842,
11842,
11842,
11796,
11796,
11796,
11796,
11796,
11796,
11796,
11796,
11796,
11796,
11796,
11796,
11796,
11796,
11796,
11796,
11796,
11796,
11796,
11796,
11796,
11796,
11796,
11796,
11796,
11796,
11796,
11796,
11796,
11796,
11796,
11796,
11796,
11796,
11796,
11796,
11796,
11796,
11789,
11789,
11789,
11789,
11789,
11789,
11789,
11789,
11789,
11789,
11789,
11789,
11789,
11789,
11789,
11789,
11789,
11789,
11789,
11789,
11789,
11789,
11789,
11789,
11789,
11789,
11789,
11674,
11674,
11674,
11674,
11674,
11674,
11674,
11674,
11674,
11674,
11674,
11674,
11645,
11645,
11645,
11501,
11501,
11501,
11501,
11501,
11501,
11501,
11501,
11501,
11501,
11501,
11501,
11501,
11501,
11501,
11501,
11501,
11501,
11501,
11501,
11501,
11501,
11501,
11501,
11501,
11501,
11501,
11501,
11501,
11501,
11501,
11501,
11501,
11501,
11501,
11501,
11501,
11501,
11501,
11501,
11501,
11501,
11501,
11501,
11501,
11501,
11501,
11501,
11501,
11501,
11501,
11501,
11501,
11501,
11501,
11501,
11501,
11501,
11501,
11501,
11501,
11501,
11501,
11501,
11501,
11501,
11501,
11450,
11450,
11450,
11450,
11450,
11450,
11450,
11450,
11450,
11450,
11450,
11450,
11450,
11450,
11450,
11450,
11450,
11450,
11450,
11450,
11450,
11450,
11450,
11450,
11450,
11450,
11450,
11450,
11450,
11450,
11450,
11450,
11450,
11450,
11450,
11450,
11450,
11450,
11450,
11318,
11318,
11318,
11318,
11318,
11318,
11318,
11318,
11318,
11318,
11318,
11318,
11318,
11318,
11318,
11318,
11318,
11318,
11318,
11318,
11318,
11318,
11318,
11318,
11318,
11318,
11318,
11318,
11318,
11318,
11318,
11318,
11318,
11318,
11318,
11318,
11318,
11318,
11318,
11318,
11318,
11318,
11318,
11318,
11318,
11318,
11318,
11318,
11318,
11318,
11318,
11318,
11318,
11318,
11318,
11318,
11318,
11318,
11318,
11318,
11318,
11318,
11318,
11318,
11318,
11318,
11318,
11318,
11318,
11318,
11318,
11318,
11318,
11318,
11318,
11318,
11318,
11318,
11318,
11318,
11318,
11318,
11318,
11318,
11318,
11318,
11318,
11318,
11318,
11318,
11318,
11318,
11318,
11318,
11318,
11318,
11318,
11318,
11318,
11318,
11318,
11318,
11318,
11318,
11318,
11318,
11318,
1,
